
Gurobi 9.0.3 (win64) logging started Sat Feb  5 17:52:11 2022

Changed value of parameter LogFile to logs\CRVRP_5-2-7-100_1_3.LOG
   Prev: logs\CRVRP_5-2-7-100_1_2.LOG  Default: 
Changed value of parameter Seed to 1149088076
   Prev: 1114696931  Min: 0  Max: 2000000000  Default: 0
Parameter Threads unchanged
   Value: 2  Min: 0  Max: 1024  Default: 0
Parameter TimeLimit unchanged
   Value: 60.0  Min: 0.0  Max: inf  Default: inf
Parameter Symmetry unchanged
   Value: 2  Min: -1  Max: 2  Default: -1
Parameter Cuts unchanged
   Value: 2  Min: -1  Max: 3  Default: -1
Parameter PreDepRow unchanged
   Value: 1  Min: -1  Max: 1  Default: -1
Parameter ScaleFlag unchanged
   Value: 1  Min: -1  Max: 3  Default: -1
Parameter NormAdjust unchanged
   Value: 0  Min: -1  Max: 3  Default: -1
Gurobi Optimizer version 9.0.3 build v9.0.3rc0 (win64)
Optimize a model with 1001 rows, 810 columns and 4006 nonzeros
Model fingerprint: 0x60801deb
Variable types: 32 continuous, 778 integer (522 binary)
Coefficient statistics:
  Matrix range     [1e+00, 1e+06]
  Objective range  [1e+00, 1e+00]
  Bounds range     [1e+00, 1e+04]
  RHS range        [1e+00, 1e+06]
Presolve removed 618 rows and 515 columns
Presolve time: 0.02s
Presolved: 383 rows, 295 columns, 2048 nonzeros
Variable types: 15 continuous, 280 integer (230 binary)

Root relaxation: objective 3.141848e+02, 229 iterations, 0.00 seconds

    Nodes    |    Current Node    |     Objective Bounds      |     Work
 Expl Unexpl |  Obj  Depth IntInf | Incumbent    BestBd   Gap | It/Node Time

     0     0  314.18479    0   36          -  314.18479      -     -    0s
H    0     0                     992.2407257  314.18479  68.3%     -    0s
     0     0  340.82337    0   52  992.24073  340.82337  65.7%     -    0s
H    0     0                     941.9222327  340.82337  63.8%     -    0s
     0     0  353.12736    0   56  941.92223  353.12736  62.5%     -    0s
H    0     0                     818.1216510  353.12736  56.8%     -    0s
     0     0  353.14387    0   54  818.12165  353.14387  56.8%     -    0s
     0     0  360.80250    0   62  818.12165  360.80250  55.9%     -    0s
     0     0  360.80250    0   62  818.12165  360.80250  55.9%     -    0s
     0     0  362.91864    0   50  818.12165  362.91864  55.6%     -    0s
     0     0  363.27881    0   63  818.12165  363.27881  55.6%     -    0s
     0     0  365.92429    0   45  818.12165  365.92429  55.3%     -    0s
H    0     0                     614.5906899  365.92429  40.5%     -    0s
     0     0  366.10451    0   45  614.59069  366.10451  40.4%     -    0s
     0     0  366.10451    0   45  614.59069  366.10451  40.4%     -    0s
     0     0  366.41659    0   48  614.59069  366.41659  40.4%     -    0s
     0     0  366.50482    0   51  614.59069  366.50482  40.4%     -    0s
     0     0  366.50482    0   51  614.59069  366.50482  40.4%     -    0s
     0     0  366.53820    0   57  614.59069  366.53820  40.4%     -    0s
     0     0  366.53820    0   39  614.59069  366.53820  40.4%     -    0s
H    0     0                     613.2558566  366.53820  40.2%     -    0s
H    0     0                     548.0767371  366.53820  33.1%     -    0s
     0     2  366.54144    0   39  548.07674  366.54144  33.1%     -    0s
*   56    50              27     538.2634933  367.13226  31.8%  20.8    0s
H  138   107                     459.5151021  370.61427  19.3%  19.0    0s
H  343   107                     454.9923633  415.03546  8.78%  14.6    0s
*  539    48              18     452.4321143  444.23736  1.81%  12.8    0s

Cutting planes:
  Gomory: 8
  Cover: 1
  Implied bound: 22
  Clique: 4
  MIR: 25
  Flow cover: 69
  Inf proof: 3
  Zero half: 1
  RLT: 80
  Relax-and-lift: 14

Explored 606 nodes (8265 simplex iterations) in 0.96 seconds
Thread count was 2 (of 8 available processors)

Solution count 10: 452.432 454.992 459.515 ... 992.241

Optimal solution found (tolerance 1.00e-04)
Best objective 4.524321143066e+02, best bound 4.524321143066e+02, gap 0.0000%
Discarded solution information
